Route #1: 6 33 1 43 63 16 51
Route #2: 22 64 42 41 56 23 49 24
Route #3: 3 44 32 50 18 55 25
Route #4: 9 39 31 10 38
Route #5: 53 11 59 14 19
Route #6: 54 13 57 15 37 20 60 36 47
Route #7: 21 61 28 62 2
Route #8: 4 45 29 5 48 30
Route #9: 27 52 34 46 8 35 7
Route #10: 26 58 12 40 17
Cost 825